Cost:    1148.89
Running time:       0.01

Solution: 
0     88      2      1      3      4      5      6      7     10     11      9     15     14     13     12      8      0      
0     91     17     21     20     26     23     19     25     28     32     35     29     36     34     31     30     33     27     24     22     16     18      0      
0     40     43     45     39     38     42     48     51     50     47     49     46     44     41     37     81      0      
0     53     56     60     58     55     63     66     64     62     61     65     59     57     54     52     93      0      
0     82     68     77     79     80     78     76     73     74     75     72     71     67     70     69      0      
0     86     85     84     83     90     97     98    100     99    101     94     96     89     92     87     95      0      
0    120    105    106    107    104    103    102    116    110    115    109    108    118    114    113    117    112    111    119      0      
